NAME: GRASP_10_6
TYPE: TSP
COMMENT: line_10_6
DIMENSION: 10
EDGE_WEIGHT_TYPE: EUC_2D
NODE_COORD_SECTION
1 0.0 8.0
2 0.0 8.0
3 0.0 3.0
4 0.0 99.0
5 0.0 16.0
6 0.0 24.0
7 0.0 94.0
8 0.0 97.0
9 0.0 65.0
10 0.0 25.0
